188
0 156 176 179 181 127 106 105 129 137 
169 69 119 7 56 93 23 115 19 138 
4 32 86 109 12 21 131 186 147 47 
132 144 46 99 139 134 78 108 90 17 
31 164 80 51 123 185 124 79 126 100 
152 61 98 177 68 22 143 33 107 44 
148 10 183 113 76 157 11 74 121 91 
130 37 9 16 43 135 112 103 163 39 
142 96 81 3 172 102 154 53 110 118 
84 151 158 95 64 77 159 161 184 54 
150 1 128 15 83 75 48 85 170 117 
14 71 28 70 50 92 182 166 178 168 
30 140 49 89 160 58 155 82 136 57 
20 171 2 104 165 8 97 59 111 187 
153 41 62 6 38 120 72 45 13 52 
35 26 173 40 63 162 24 149 73 42 
125 65 167 18 174 94 175 25 34 101 
146 180 66 141 67 114 55 145 88 122 
116 133 60 5 87 29 27 36 
